84
0 35 23 69 3 64 36 41 54 77 
4 32 19 42 49 16 80 37 5 61 
79 27 57 48 68 7 47 46 62 26 
83 60 24 40 15 74 13 65 10 22 
58 51 9 2 14 67 72 21 6 28 
50 76 44 30 43 78 55 8 34 52 
31 59 81 53 12 73 39 11 33 17 
20 29 70 25 45 1 56 66 63 38 
18 75 82 71 
